90
1588
5
25
69
58
22
77
0 1
0 6
0 8
0 11
0 15
0 19
0 21
0 22
0 25
0 27
0 32
0 33
0 34
0 35
0 37
0 46
0 48
0 51
0 53
0 55
0 56
0 61
0 62
0 68
0 69
0 72
0 73
0 74
0 77
0 78
0 80
0 82
0 84
0 87
0 88
1 6
1 7
1 8
1 14
1 15
1 17
1 22
1 25
1 28
1 30
1 31
1 34
1 36
1 38
1 43
1 44
1 45
1 47
1 48
1 57
1 58
1 62
1 64
1 66
1 68
1 69
1 70
1 71
1 73
1 74
1 76
1 77
1 80
1 81
1 82
1 84
1 85
1 86
2 6
2 7
2 9
2 14
2 19
2 21
2 22
2 23
2 26
2 28
2 29
2 31
2 32
2 33
2 35
2 39
2 44
2 47
2 49
2 50
2 52
2 53
2 57
2 58
2 60
2 62
2 64
2 69
2 71
2 77
2 78
2 83
2 84
2 89
3 4
3 8
3 12
3 14
3 15
3 23
3 24
3 27
3 30
3 31
3 35
3 38
3 39
3 40
3 41
3 42
3 44
3 46
3 49
3 53
3 63
3 64
3 69
3 73
3 76
3 86
3 89
4 5
4 7
4 12
4 13
4 14
4 16
4 17
4 19
4 21
4 22
4 27
4 28
4 31
4 38
4 40
4 43
4 47
4 50
4 52
4 53
4 55
4 65
4 71
4 74
4 75
4 78
4 83
4 88
5 6
5 8
5 9
5 11
5 16
5 17
5 19
5 22
5 24
5 27
5 28
5 30
5 32
5 33
5 34
5 36
5 38
5 39
5 40
5 43
5 47
5 48
5 49
5 50
5 53
5 54
5 57
5 58
5 59
5 60
5 61
5 62
5 70
5 71
5 74
5 75
5 78
5 79
5 81
5 82
5 87
5 88
5 89
6 8
6 18
6 19
6 20
6 24
6 25
6 27
6 28
6 29
6 35
6 36
6 38
6 39
6 40
6 41
6 42
6 43
6 45
6 49
6 50
6 51
6 53
6 59
6 61
6 67
6 72
6 73
6 74
6 82
6 83
6 86
6 87
7 9
7 12
7 13
7 15
7 16
7 17
7 18
7 20
7 21
7 27
7 28
7 32
7 33
7 36
7 38
7 40
7 42
7 48
7 49
7 53
7 57
7 58
7 70
7 71
7 72
7 73
7 74
7 75
7 82
7 85
8 9
8 11
8 13
8 14
8 15
8 16
8 21
8 25
8 26
8 27
8 28
8 29
8 30
8 32
8 33
8 34
8 37
8 38
8 43
8 47
8 49
8 51
8 55
8 57
8 58
8 62
8 64
8 65
8 67
8 68
8 69
8 75
8 77
8 78
8 80
8 81
8 82
8 83
8 84
8 86
9 11
9 13
9 16
9 17
9 18
9 19
9 20
9 22
9 26
9 29
9 33
9 34
9 36
9 39
9 43
9 44
9 45
9 50
9 51
9 52
9 53
9 55
9 60
9 62
9 64
9 67
9 69
9 71
9 72
9 73
9 76
9 79
9 84
9 85
9 88
9 89
10 15
10 17
10 19
10 20
10 21
10 23
10 30
10 36
10 39
10 40
10 41
10 43
10 44
10 45
10 54
10 57
10 58
10 62
10 64
10 67
10 73
10 74
10 75
10 76
10 78
10 80
10 81
10 85
10 86
11 15
11 16
11 17
11 18
11 22
11 25
11 27
11 28
11 29
11 30
11 31
11 32
11 38
11 41
11 43
11 46
11 51
11 52
11 53
11 54
11 55
11 64
11 65
11 67
11 71
11 74
11 77
11 78
11 79
11 84
11 86
12 13
12 17
12 19
12 22
12 26
12 29
12 31
12 35
12 36
12 37
12 39
12 40
12 41
12 43
12 44
12 46
12 47
12 49
12 51
12 52
12 55
12 59
12 60
12 64
12 67
12 68
12 69
12 73
12 74
12 78
12 86
12 87
12 89
13 14
13 16
13 17
13 18
13 26
13 29
13 30
13 32
13 41
13 42
13 44
13 45
13 46
13 47
13 51
13 53
13 54
13 55
13 57
13 60
13 64
13 65
13 67
13 68
13 69
13 71
13 72
13 73
13 74
13 78
13 79
13 82
13 83
13 85
13 86
13 88
13 89
14 16
14 18
14 21
14 25
14 29
14 31
14 32
14 33
14 35
14 36
14 39
14 40
14 42
14 45
14 50
14 52
14 53
14 56
14 58
14 59
14 61
14 64
14 65
14 68
14 69
14 73
14 79
14 80
14 82
14 86
14 87
15 16
15 18
15 21
15 25
15 26
15 29
15 31
15 33
15 34
15 40
15 42
15 43
15 44
15 45
15 46
15 47
15 54
15 58
15 61
15 71
15 77
15 82
15 83
15 84
16 17
16 22
16 24
16 30
16 31
16 32
16 37
16 41
16 42
16 44
16 47
16 48
16 50
16 51
16 52
16 53
16 54
16 56
16 57
16 59
16 60
16 67
16 68
16 72
16 73
16 74
16 75
16 79
16 81
16 82
16 84
16 86
16 88
17 19
17 20
17 21
17 22
17 24
17 26
17 30
17 31
17 32
17 40
17 46
17 47
17 48
17 49
17 50
17 51
17 52
17 53
17 57
17 58
17 63
17 69
17 75
17 78
17 83
18 20
18 25
18 27
18 28
18 31
18 36
18 37
18 39
18 41
18 42
18 43
18 46
18 47
18 49
18 51
18 52
18 53
18 55
18 56
18 57
18 58
18 63
18 64
18 65
18 72
18 74
18 75
18 79
18 81
18 86
18 89
19 21
19 22
19 23
19 24
19 32
19 33
19 34
19 35
19 36
19 37
19 39
19 41
19 44
19 46
19 47
19 50
19 51
19 52
19 53
19 56
19 57
19 58
19 60
19 66
19 69
19 70
19 71
19 73
19 74
19 75
19 77
19 80
19 82
19 83
19 85
19 87
20 22
20 23
20 25
20 32
20 42
20 47
20 49
20 50
20 59
20 64
20 66
20 70
20 71
20 73
20 76
20 77
20 80
20 84
21 22
21 27
21 34
21 36
21 38
21 40
21 41
21 42
21 46
21 50
21 52
21 53
21 56
21 57
21 60
21 64
21 68
21 69
21 78
21 79
21 81
22 25
22 27
22 28
22 31
22 36
22 42
22 48
22 54
22 56
22 57
22 60
22 61
22 64
22 71
22 72
22 73
22 74
22 76
22 78
22 81
22 82
22 86
22 87
23 27
23 30
23 33
23 35
23 36
23 37
23 38
23 40
23 45
23 46
23 47
23 49
23 55
23 60
23 64
23 66
23 69
23 71
23 72
23 73
23 74
23 78
23 80
23 82
23 85
23 86
23 88
24 28
24 29
24 34
24 35
24 36
24 38
24 45
24 47
24 48
24 49
24 51
24 52
24 54
24 55
24 57
24 63
24 68
24 71
24 73
24 77
24 78
24 86
25 28
25 30
25 31
25 38
25 39
25 42
25 43
25 44
25 46
25 47
25 52
25 53
25 54
25 57
25 58
25 62
25 64
25 65
25 66
25 69
25 70
25 73
25 75
25 77
25 78
25 79
25 81
25 83
25 87
25 89
26 31
26 33
26 41
26 46
26 48
26 54
26 55
26 56
26 58
26 60
26 61
26 63
26 64
26 65
26 66
26 67
26 72
26 73
26 79
26 81
26 84
26 88
27 29
27 31
27 32
27 39
27 45
27 47
27 48
27 50
27 59
27 60
27 65
27 66
27 71
27 74
27 75
27 76
27 77
27 78
27 79
27 80
27 81
27 83
27 85
28 31
28 33
28 35
28 36
28 37
28 38
28 39
28 40
28 41
28 42
28 45
28 51
28 54
28 56
28 62
28 63
28 64
28 66
28 67
28 70
28 71
28 76
28 84
28 85
28 87
29 34
29 37
29 38
29 39
29 42
29 47
29 48
29 51
29 58
29 59
29 62
29 66
29 76
29 78
29 79
29 80
29 84
29 85
30 34
30 39
30 41
30 42
30 45
30 53
30 57
30 60
30 63
30 64
30 66
30 68
30 69
30 72
30 75
30 76
30 82
30 83
30 84
30 85
31 32
31 33
31 36
31 38
31 40
31 41
31 42
31 50
31 52
31 53
31 58
31 62
31 63
31 64
31 73
31 76
31 78
31 79
31 80
31 81
31 82
31 86
31 87
32 33
32 43
32 51
32 54
32 58
32 59
32 61
32 64
32 69
32 70
32 71
32 77
32 80
32 81
32 82
33 34
33 43
33 44
33 45
33 47
33 48
33 50
33 52
33 58
33 59
33 65
33 68
33 74
33 79
33 85
33 86
33 88
34 36
34 37
34 40
34 41
34 44
34 45
34 47
34 50
34 54
34 60
34 63
34 64
34 65
34 70
34 73
34 78
34 79
34 81
34 83
34 85
34 89
35 37
35 38
35 39
35 43
35 48
35 52
35 53
35 54
35 55
35 58
35 62
35 68
35 69
35 70
35 73
35 74
35 76
35 79
35 80
35 85
35 86
35 88
36 42
36 44
36 45
36 48
36 53
36 55
36 56
36 58
36 60
36 61
36 62
36 69
36 71
36 72
36 76
36 78
36 81
36 83
36 84
36 86
36 87
36 88
36 89
37 39
37 41
37 48
37 50
37 52
37 54
37 55
37 59
37 61
37 62
37 63
37 66
37 69
37 71
37 74
37 75
37 78
37 79
37 80
37 81
37 83
37 86
37 89
38 40
38 49
38 51
38 57
38 59
38 62
38 63
38 64
38 67
38 69
38 71
38 73
38 74
38 75
38 76
38 79
38 87
39 43
39 47
39 49
39 50
39 51
39 56
39 58
39 60
39 65
39 67
39 70
39 71
39 72
39 73
39 75
39 77
39 78
39 79
39 80
39 84
39 85
39 86
39 87
40 42
40 44
40 47
40 50
40 51
40 52
40 59
40 60
40 62
40 64
40 69
40 71
40 74
40 76
40 79
40 80
40 82
40 84
40 85
40 88
41 43
41 44
41 47
41 48
41 49
41 56
41 58
41 59
41 60
41 63
41 65
41 66
41 67
41 70
41 71
41 73
41 78
41 79
41 81
41 84
41 86
42 45
42 48
42 50
42 54
42 55
42 56
42 57
42 60
42 63
42 64
42 66
42 73
42 77
42 79
42 85
42 87
43 45
43 47
43 51
43 52
43 53
43 56
43 60
43 63
43 65
43 70
43 71
43 72
43 74
43 75
43 76
43 77
43 78
43 79
43 80
43 81
43 84
43 85
43 88
43 89
44 45
44 49
44 51
44 55
44 57
44 60
44 61
44 63
44 64
44 66
44 70
44 71
44 72
44 74
44 81
44 84
44 87
44 88
45 47
45 48
45 50
45 51
45 52
45 54
45 56
45 61
45 64
45 65
45 68
45 69
45 72
45 73
45 74
45 75
45 78
45 80
45 82
45 84
45 88
45 89
46 47
46 48
46 49
46 51
46 52
46 57
46 58
46 64
46 69
46 73
46 75
46 77
46 78
46 79
46 81
46 82
46 83
46 86
46 87
47 49
47 51
47 56
47 57
47 59
47 61
47 62
47 63
47 65
47 67
47 70
47 72
47 73
47 74
47 76
47 77
47 78
47 79
47 80
47 82
47 83
47 84
47 88
48 52
48 57
48 58
48 61
48 64
48 67
48 69
48 72
48 74
48 75
48 78
48 79
49 50
49 54
49 55
49 57
49 58
49 60
49 61
49 66
49 67
49 73
49 76
49 78
49 84
49 85
49 88
50 53
50 55
50 60
50 61
50 63
50 64
50 65
50 68
50 70
50 72
50 74
50 77
50 79
50 82
50 86
50 87
51 52
51 56
51 57
51 58
51 59
51 60
51 61
51 65
51 66
51 74
51 75
51 82
51 83
51 84
51 85
51 88
52 53
52 59
52 61
52 66
52 70
52 73
52 76
52 78
52 79
52 80
52 89
53 54
53 55
53 58
53 61
53 62
53 63
53 65
53 66
53 67
53 70
53 71
53 72
53 75
53 77
53 78
53 79
53 80
53 81
53 85
53 88
54 58
54 61
54 63
54 64
54 65
54 67
54 72
54 73
54 74
54 77
54 81
54 83
54 86
55 57
55 58
55 60
55 61
55 62
55 65
55 68
55 72
55 79
55 81
55 82
55 83
55 85
56 57
56 61
56 71
56 72
56 74
56 75
56 76
56 80
56 84
56 85
56 86
56 89
57 59
57 62
57 63
57 64
57 66
57 68
57 70
57 79
57 83
57 86
57 87
58 61
58 68
58 69
58 71
58 73
58 78
58 80
58 82
58 84
58 86
58 88
59 60
59 61
59 65
59 75
59 80
59 83
59 88
59 89
60 61
60 62
60 63
60 67
60 68
60 72
60 79
60 80
60 82
60 84
60 87
60 88
61 63
61 65
61 66
61 68
61 69
61 70
61 71
61 75
61 77
61 80
61 81
61 82
61 83
61 84
61 88
62 65
62 70
62 74
62 75
62 78
62 82
62 86
62 87
62 88
62 89
63 64
63 66
63 69
63 71
63 72
63 73
63 78
63 82
63 83
64 65
64 66
64 67
64 70
64 73
64 77
64 78
64 86
64 87
64 88
65 66
65 67
65 68
65 69
65 72
65 74
65 78
65 80
65 81
65 83
65 84
65 85
65 86
65 89
66 69
66 71
66 77
66 79
66 80
66 81
66 82
66 83
66 85
66 86
66 88
66 89
67 71
67 72
67 73
67 77
67 79
67 80
67 81
67 83
67 89
68 69
68 71
68 73
68 76
68 78
68 79
68 81
68 84
68 86
68 89
69 70
69 73
69 79
69 83
69 86
69 89
70 72
70 73
70 75
70 77
70 78
70 79
70 81
70 83
70 86
70 88
70 89
71 74
71 78
71 80
71 81
71 84
71 85
72 76
72 78
72 79
72 82
72 85
72 89
73 76
73 78
73 79
73 80
73 81
73 82
73 84
73 85
73 89
74 76
74 86
75 76
75 77
75 80
75 81
75 83
76 82
76 83
76 84
76 85
76 89
77 78
77 80
77 85
77 87
77 88
77 89
78 81
78 82
78 84
78 86
78 88
79 80
79 81
79 87
79 88
80 83
80 86
81 84
81 85
81 86
82 85
82 86
82 87
83 89
84 85
84 88
84 89
85 87
85 89
86 87
63 28 86 12 21 56 48 82 41 26 0 49 11 83 22 61 73 30
85 71 44 87 38 16 55 5 78 15 23 17 39 25 60 14 57 10
18 43 58 67 74 9 69 62 32 72 13 79 7 8 51 46 35 76
50 64 29 40 84 65 27 47 75 66 6 20 45 33 54 37 3 77
4 52 68 24 19 34 36 42 88 89 31 59 1 70 2 80 81 53
